5 6 2.2
3 3 1 147 2 123 3 145 2 4 140 2 130 2 4 150 5 160 
3 2 1 214 3 150 2 3 87 2 66 2 5 178 6 95 
3 2 1 87 2 62 2 3 180 4 105 3 4 190 5 100 6 153 
3 2 1 87 2 65 1 5 173 2 4 145 6 136 
3 3 2 123 3 145 1 128 3 3 86 4 65 5 47 2 5 110 6 85 
2 80 19 124 1 180 249 
2 23 22 100 13 161 205 
2 37 33 134 98 201 300 
2 64 24 154 73 211 323 
2 10 38 186 34 307 365 
2 15 19 86 16 141 174 
